robust/generate/spp_dkp_Lefebvre_et_al_2026/src/shortest_path_5_4.kp
46
96

[4.7 3.81 1.49 4.55 1.88 5.62 0.26 2.65 5.48 2.73 3.05 0.51 2.56 4.47 5.2 1.94]

[14 72 54 85 84 58 77 22 82 96 48 75 83 12 6 90]
