robust/generate/spp_dkp_Lefebvre_et_al_2026/src/shortest_path_5_4.lp
\ Model sp_5_4
\ LP format - for model browsing. Use MPS format to capture full model detail.
\ Signature: 0x6daf66c4acd85796
Minimize
  24.33 y[0,1] + 69.57 y[0,2] + 73.55 y[0,3] + 25.08 y[0,4] + 24.33 y[1,0]
   + 14.04 y[1,4] + 69.57 y[2,0] + 37.48 y[2,3] + 71.84 y[2,4]
   + 73.55 y[3,0] + 37.48 y[3,2] + 62.51 y[3,4] + 25.08 y[4,0]
   + 14.04 y[4,1] + 71.84 y[4,2] + 62.51 y[4,3] + 2.433 r[0,1]
   + 6.957 r[0,2] + 7.355 r[0,3] + 2.508 r[0,4] + 2.433 r[1,0]
   + 1.404 r[1,4] + 6.957 r[2,0] + 3.748 r[2,3] + 7.184 r[2,4]
   + 7.355 r[3,0] + 3.748 r[3,2] + 6.251 r[3,4] + 2.508 r[4,0]
   + 1.404 r[4,1] + 7.184 r[4,2] + 6.251 r[4,3]
Subject To
 flow_cons_inner_nodes[0]: - y[0,1] - y[0,2] - y[0,3] - y[0,4] + y[1,0]
   + y[2,0] + y[3,0] + y[4,0] = 0
 flow_cons_inner_nodes[3]: y[0,3] + y[2,3] - y[3,0] - y[3,2] - y[3,4]
   + y[4,3] = 0
 flow_cons_inner_nodes[4]: y[0,4] + y[1,4] + y[2,4] + y[3,4] - y[4,0]
   - y[4,1] - y[4,2] - y[4,3] = 0
 flow_cons_source: - y[0,1] + y[1,0] + y[1,4] - y[4,1] = 1
 flow_cons_target: y[0,2] - y[2,0] - y[2,3] - y[2,4] + y[3,2] + y[4,2] = 1
 primal_lower: - 4.7 y[0,1] - 3.81 y[0,2] - 1.49 y[0,3] - 4.55 y[0,4]
   - 1.88 y[1,0] - 5.62 y[1,4] - 0.26 y[2,0] - 2.65 y[2,3] - 5.48 y[2,4]
   - 2.73 y[3,0] - 3.05 y[3,2] - 0.51 y[3,4] - 2.56 y[4,0] - 4.47 y[4,1]
   - 5.2 y[4,2] - 1.94 y[4,3] + 14 u[0,1] + 72 u[0,2] + 54 u[0,3]
   + 85 u[0,4] + 84 u[1,0] + 58 u[1,4] + 77 u[2,0] + 22 u[2,3] + 82 u[2,4]
   + 96 u[3,0] + 48 u[3,2] + 75 u[3,4] + 83 u[4,0] + 12 u[4,1] + 6 u[4,2]
   + 90 u[4,3] <= 96
 mccormick1[0,1]: - u[0,1] + r[0,1] <= 0
 mccormick1[0,2]: - u[0,2] + r[0,2] <= 0
 mccormick1[0,3]: - u[0,3] + r[0,3] <= 0
 mccormick1[0,4]: - u[0,4] + r[0,4] <= 0
 mccormick1[1,0]: - u[1,0] + r[1,0] <= 0
 mccormick1[1,4]: - u[1,4] + r[1,4] <= 0
 mccormick1[2,0]: - u[2,0] + r[2,0] <= 0
 mccormick1[2,3]: - u[2,3] + r[2,3] <= 0
 mccormick1[2,4]: - u[2,4] + r[2,4] <= 0
 mccormick1[3,0]: - u[3,0] + r[3,0] <= 0
 mccormick1[3,2]: - u[3,2] + r[3,2] <= 0
 mccormick1[3,4]: - u[3,4] + r[3,4] <= 0
 mccormick1[4,0]: - u[4,0] + r[4,0] <= 0
 mccormick1[4,1]: - u[4,1] + r[4,1] <= 0
 mccormick1[4,2]: - u[4,2] + r[4,2] <= 0
 mccormick1[4,3]: - u[4,3] + r[4,3] <= 0
 mccormick2[0,1]: - y[0,1] + r[0,1] <= 0
 mccormick2[0,2]: - y[0,2] + r[0,2] <= 0
 mccormick2[0,3]: - y[0,3] + r[0,3] <= 0
 mccormick2[0,4]: - y[0,4] + r[0,4] <= 0
 mccormick2[1,0]: - y[1,0] + r[1,0] <= 0
 mccormick2[1,4]: - y[1,4] + r[1,4] <= 0
 mccormick2[2,0]: - y[2,0] + r[2,0] <= 0
 mccormick2[2,3]: - y[2,3] + r[2,3] <= 0
 mccormick2[2,4]: - y[2,4] + r[2,4] <= 0
 mccormick2[3,0]: - y[3,0] + r[3,0] <= 0
 mccormick2[3,2]: - y[3,2] + r[3,2] <= 0
 mccormick2[3,4]: - y[3,4] + r[3,4] <= 0
 mccormick2[4,0]: - y[4,0] + r[4,0] <= 0
 mccormick2[4,1]: - y[4,1] + r[4,1] <= 0
 mccormick2[4,2]: - y[4,2] + r[4,2] <= 0
 mccormick2[4,3]: - y[4,3] + r[4,3] <= 0
 mccormick3[0,1]: - y[0,1] - u[0,1] + r[0,1] >= -1
 mccormick3[0,2]: - y[0,2] - u[0,2] + r[0,2] >= -1
 mccormick3[0,3]: - y[0,3] - u[0,3] + r[0,3] >= -1
 mccormick3[0,4]: - y[0,4] - u[0,4] + r[0,4] >= -1
 mccormick3[1,0]: - y[1,0] - u[1,0] + r[1,0] >= -1
 mccormick3[1,4]: - y[1,4] - u[1,4] + r[1,4] >= -1
 mccormick3[2,0]: - y[2,0] - u[2,0] + r[2,0] >= -1
 mccormick3[2,3]: - y[2,3] - u[2,3] + r[2,3] >= -1
 mccormick3[2,4]: - y[2,4] - u[2,4] + r[2,4] >= -1
 mccormick3[3,0]: - y[3,0] - u[3,0] + r[3,0] >= -1
 mccormick3[3,2]: - y[3,2] - u[3,2] + r[3,2] >= -1
 mccormick3[3,4]: - y[3,4] - u[3,4] + r[3,4] >= -1
 mccormick3[4,0]: - y[4,0] - u[4,0] + r[4,0] >= -1
 mccormick3[4,1]: - y[4,1] - u[4,1] + r[4,1] >= -1
 mccormick3[4,2]: - y[4,2] - u[4,2] + r[4,2] >= -1
 mccormick3[4,3]: - y[4,3] - u[4,3] + r[4,3] >= -1
Bounds
Binaries
 y[0,1] y[0,2] y[0,3] y[0,4] y[1,0] y[1,4] y[2,0] y[2,3] y[2,4] y[3,0]
 y[3,2] y[3,4] y[4,0] y[4,1] y[4,2] y[4,3] u[0,1] u[0,2] u[0,3] u[0,4]
 u[1,0] u[1,4] u[2,0] u[2,3] u[2,4] u[3,0] u[3,2] u[3,4] u[4,0] u[4,1]
 u[4,2] u[4,3] r[0,1] r[0,2] r[0,3] r[0,4] r[1,0] r[1,4] r[2,0] r[2,3]
 r[2,4] r[3,0] r[3,2] r[3,4] r[4,0] r[4,1] r[4,2] r[4,3]
End
